W=5;
H=5;

MAX_TIME=W*H;
MAX_TRACKS=8;

TARGET=(3,5);

N_TRAINS=2;
TRAINS=[(2,1,RIGHT),(4,1,RIGHT)];

N_INIT_POS=6;
INIT_POS=[
(2,1,STRAIGHT_RL),
(2,3,STRAIGHT_RL),
(3,5,STRAIGHT_RL),
(4,1,STRAIGHT_RL),
(4,3,STRAIGHT_RL),
(3,3,EMPTY),
];
N_TUNNELS=0;
TUNNEL_PAIRS=[];

N_GATES=0;
GATES=[];
N_ACTIVATIONS=0;
ACTIVATIONS=[];

N_DSWITCHES=0;
DSWITCHES=[];
N_STATIONS=1;
STATIONS=[
  (4,3,2),
];
